
The Gurobi software has a limited number of licenses. To request a license or
licenses, add this line

    #SBATCH --licenses=gurobi@slurmdb:1

to your SBATCH script, replacing N with the number of licenses you need. Gurobi
will need one license per process.



Starting CP-SAT solver v9.12.4544
Parameters: log_search_progress: true
Setting number of workers to 36

Initial satisfaction model '': (model_fingerprint: 0xaa69fe9bb055d086)
#Variables: 5'035'843
  - 5'035'843 Booleans in [0,1]
#kBoolAnd: 4'706'055 (#enforced: 4'706'055) (#literals: 14'118'165)
#kBoolOr: 1 (#literals: 345)
#kLinear1: 9'412'319 (#enforced: 9'412'305)
#kLinear2: 2'858'795 (#enforced: 2'151)
#kLinear3: 4'822 (#enforced: 4'500)
#kLinearN: 636'688 (#enforced: 322'905) (#terms: 7'546'680)

Starting presolve at 2.37s
  3.09e+00s  0.00e+00d  [DetectDominanceRelations] 
  2.88e+01s  0.00e+00d  [PresolveToFixPoint] #num_loops=3 #num_dual_strengthening=2 
  1.61e-01s  0.00e+00d  [ExtractEncodingFromLinear] #potential_supersets=11 
  4.69e-01s  0.00e+00d  [DetectDuplicateColumns] 
  2.01e+00s  0.00e+00d  [DetectDuplicateConstraints] 
[Symmetry] Problem too large. Skipping. You can use symmetry_level:3 or more to force it.
[SAT presolve] num removable Booleans: 5035289 / 5035634
[SAT presolve] num trivial clauses: 0
[SAT presolve] [0s] clauses:12912828 literals:32433998 vars:5035634 one_side_vars:0 simple_definition:4706084 singleton_clauses:0
[SAT presolve] [3.60476s] clauses:12912814 literals:32433904 vars:5035634 one_side_vars:0 simple_definition:4706084 singleton_clauses:0
[SAT presolve] [5.59138s] clauses:12911132 literals:32429974 vars:5035205 one_side_vars:0 simple_definition:4706055 singleton_clauses:0
  3.94e-01s  0.00e+00d  [DetectDuplicateConstraintsWithDifferentEnforcements] #without_enforcements=8'661 
  7.10e+00s  1.07e+00d *[Probe] #probed=21 #fixed_bools=2'095'474 #equiv=28'556 #new_binary_clauses=90'628 
  2.69e+01s  2.56e+01d *[MaxClique] Merged 12'267'669(24'535'481 literals) into 12'252'212(24'504'567 literals) at_most_ones. 
  2.91e+00s  0.00e+00d  [DetectDominanceRelations] 
  1.70e+01s  0.00e+00d  [PresolveToFixPoint] #num_loops=20 #num_dual_strengthening=10 
  9.88e-01s  0.00e+00d  [ProcessAtMostOneAndLinear] 
  1.07e+00s  0.00e+00d  [DetectDuplicateConstraints] #duplicates=19'578 
  9.35e-01s  0.00e+00d  [DetectDuplicateConstraintsWithDifferentEnforcements] 
  2.60e-01s  3.84e-07d  [DetectDominatedLinearConstraints] #relevant_constraints=11 
  2.68e-01s  0.00e+00d  [DetectDifferentVariables] 
  3.72e+00s  7.25e-02d  [ProcessSetPPC] #relevant_constraints=7'085'834 #num_inclusions=1'401'770 
  2.45e-01s  0.00e+00d  [FindAlmostIdenticalLinearConstraints] 
  1.35e+00s  3.09e-01d  [FindBigAtMostOneAndLinearOverlap] 
  3.74e-01s  8.71e-02d  [FindBigVerticalLinearOverlap] 
  2.47e-01s  6.40e-07d  [FindBigHorizontalLinearOverlap] #linears=11 
  1.02e+00s  2.11e-02d  [MergeClauses] #num_collisions=22 #num_merges=22 #num_saved_literals=104 
  2.85e+00s  0.00e+00d  [DetectDominanceRelations] 
  7.83e+00s  0.00e+00d  [PresolveToFixPoint] #num_loops=2 #num_dual_strengthening=2 
  2.85e+00s  0.00e+00d  [DetectDominanceRelations] 
  5.30e+00s  0.00e+00d  [PresolveToFixPoint] #num_loops=1 #num_dual_strengthening=1 
  3.69e-01s  0.00e+00d  [DetectDuplicateColumns] 
  4.22e-01s  0.00e+00d  [DetectDuplicateConstraints] #duplicates=335 
[Symmetry] Problem too large. Skipping. You can use symmetry_level:3 or more to force it.
[SAT presolve] num removable Booleans: 2803197 / 2803391
[SAT presolve] num trivial clauses: 0
[SAT presolve] [0s] clauses:6984254 literals:17218902 vars:2803391 one_side_vars:0 simple_definition:2579144 singleton_clauses:0
[SAT presolve] [2.00392s] clauses:6968707 literals:17161538 vars:2803391 one_side_vars:10177 simple_definition:2569031 singleton_clauses:10177
[SAT presolve] [3.27372s] clauses:6949075 literals:17140430 vars:2784219 one_side_vars:1 simple_definition:2560064 singleton_clauses:1
  3.69e-01s  0.00e+00d  [DetectDuplicateConstraintsWithDifferentEnforcements] #without_enforcements=5 
  6.37e+00s  1.02e+00d *[Probe] #probed=50 #fixed_bools=167'334 #equiv=33 #new_binary_clauses=72'121 
  1.35e+01s  1.31e+01d *[MaxClique] Merged 6'460'627(12'921'254 literals) into 6'460'216(12'920'834 literals) at_most_ones. 
  3.01e+00s  0.00e+00d  [DetectDominanceRelations] 
  7.10e+00s  0.00e+00d  [PresolveToFixPoint] #num_loops=1 #num_dual_strengthening=1 
  1.23e+00s  0.00e+00d  [ProcessAtMostOneAndLinear] 
  1.28e+00s  0.00e+00d  [DetectDuplicateConstraints] 
  1.16e+00s  0.00e+00d  [DetectDuplicateConstraintsWithDifferentEnforcements] 
  3.61e-01s  3.51e-07d  [DetectDominatedLinearConstraints] #relevant_constraints=11 
  3.70e-01s  0.00e+00d  [DetectDifferentVariables] 
  3.93e+00s  6.68e-02d  [ProcessSetPPC] #relevant_constraints=6'548'687 #num_inclusions=1'293'530 
  3.95e-01s  0.00e+00d  [FindAlmostIdenticalLinearConstraints] 
  1.24e+00s  2.87e-01d  [FindBigAtMostOneAndLinearOverlap] 
  3.45e-01s  8.06e-02d  [FindBigVerticalLinearOverlap] 
  3.12e-01s  5.65e-07d  [FindBigHorizontalLinearOverlap] #linears=10 
  1.29e+00s  1.99e-02d  [MergeClauses] #num_collisions=3'173 #num_merges=3'173 #num_saved_literals=6'720 
  3.02e+00s  0.00e+00d  [DetectDominanceRelations] 
  8.25e+00s  0.00e+00d  [PresolveToFixPoint] #num_loops=3 #num_dual_strengthening=2 
  2.92e+00s  0.00e+00d  [DetectDominanceRelations] 
  5.65e+00s  0.00e+00d  [PresolveToFixPoint] #num_loops=1 #num_dual_strengthening=1 
  4.24e-01s  0.00e+00d  [DetectDuplicateColumns] 
  5.78e-01s  0.00e+00d  [DetectDuplicateConstraints] #duplicates=2'414 
[Symmetry] Problem too large. Skipping. You can use symmetry_level:3 or more to force it.
[SAT presolve] num removable Booleans: 2483118 / 2484046
[SAT presolve] num trivial clauses: 0
[SAT presolve] [0s] clauses:6186226 literals:15203715 vars:2484046 one_side_vars:0 simple_definition:2270564 singleton_clauses:0
[SAT presolve] [1.87272s] clauses:6182377 literals:15165998 vars:2484046 one_side_vars:0 simple_definition:2270570 singleton_clauses:0
[SAT presolve] [3.0975s] clauses:6158688 literals:15185534 vars:2460368 one_side_vars:0 simple_definition:2164570 singleton_clauses:0
  5.55e-01s  0.00e+00d  [DetectDuplicateConstraintsWithDifferentEnforcements] #without_enforcements=4 
  7.71e+00s  1.05e+00d *[Probe] #probed=58 #fixed_bools=89'479 #equiv=3'761 #new_binary_clauses=62'691 
  1.14e+01s  1.14e+01d *[MaxClique] Merged 5'669'520(11'339'442 literals) into 5'646'806(11'294'295 literals) at_most_ones. 
  3.18e+00s  0.00e+00d  [DetectDominanceRelations] 
  9.37e+00s  0.00e+00d  [PresolveToFixPoint] #num_loops=2 #num_dual_strengthening=2 
  1.22e+00s  0.00e+00d  [ProcessAtMostOneAndLinear] 
  1.20e+00s  0.00e+00d  [DetectDuplicateConstraints] #duplicates=182 
  1.14e+00s  0.00e+00d  [DetectDuplicateConstraintsWithDifferentEnforcements] 
  4.49e-01s  3.48e-07d  [DetectDominatedLinearConstraints] #relevant_constraints=11 
  3.91e-01s  0.00e+00d  [DetectDifferentVariables] 
  3.70e+00s  5.90e-02d  [ProcessSetPPC] #relevant_constraints=5'908'522 #num_inclusions=1'101'308 
  6.21e-01s  0.00e+00d  [FindAlmostIdenticalLinearConstraints] 
  1.16e+00s  2.53e-01d  [FindBigAtMostOneAndLinearOverlap] 
  3.63e-01s  7.28e-02d  [FindBigVerticalLinearOverlap] 
  3.67e-01s  5.60e-07d  [FindBigHorizontalLinearOverlap] #linears=10 
  1.23e+00s  1.85e-02d  [MergeClauses] #num_collisions=21'173 #num_merges=21'173 #num_saved_literals=76'761 
  3.28e+00s  0.00e+00d  [DetectDominanceRelations] 
  8.14e+00s  0.00e+00d  [PresolveToFixPoint] #num_loops=2 #num_dual_strengthening=2 

Presolve summary:
  - 185086 affine relations were detected.
  - rule 'TODO dual: only one blocking constraint?' was applied 61'556'975 times.
  - rule 'TODO dual: tighten at most one' was applied 1'010'346 times.
  - rule 'TODO linear2: contains a Boolean.' was applied 5'716'304 times.
  - rule 'affine: fixed' was applied 1 time.
  - rule 'affine: new relation' was applied 185'086 times.
  - rule 'at_most_one: empty or all false' was applied 885'378 times.
  - rule 'at_most_one: removed literals' was applied 3'008'975 times.
  - rule 'at_most_one: satisfied' was applied 3'193'953 times.
  - rule 'at_most_one: singleton' was applied 30 times.
  - rule 'at_most_one: size one' was applied 2'123'441 times.
  - rule 'at_most_one: transformed into max clique.' was applied 3 times.
  - rule 'at_most_one: x and not(x)' was applied 16 times.
  - rule 'bool_and: fixed literals' was applied 68'232 times.
  - rule 'bool_and: non-reified.' was applied 2'912 times.
  - rule 'bool_and: removed duplicate literal' was applied 4'121 times.
  - rule 'bool_and: setting unused literal in rhs to true' was applied 6 times.
  - rule 'bool_and: x => x' was applied 160'901 times.
  - rule 'bool_or: always true' was applied 152'233 times.
  - rule 'bool_or: fixed literals' was applied 686'736 times.
  - rule 'bool_or: implications' was applied 2'879'356 times.
  - rule 'bool_or: only one literal' was applied 2'844 times.
  - rule 'bool_or: removed enforcement literal' was applied 330'186 times.
  - rule 'bool_or: singleton' was applied 37 times.
  - rule 'deductions: 9412305 stored' was applied 1 time.
  - rule 'dual: enforced equivalence' was applied 152'737 times.
  - rule 'dual: fix variable' was applied 33 times.
  - rule 'duplicate: removed constraint' was applied 22'509 times.
  - rule 'duplicate: removed enforced constraint' was applied 8'670 times.
  - rule 'enforcement: false literal' was applied 2'889 times.
  - rule 'enforcement: literal not used' was applied 11 times.
  - rule 'enforcement: true literal' was applied 2'915 times.
  - rule 'exactly_one: removed literals' was applied 7 times.
  - rule 'linear1: x in domain' was applied 14 times.
  - rule 'linear: always true' was applied 14 times.
  - rule 'linear: fixed or dup variables' was applied 15 times.
  - rule 'linear: negative clause' was applied 2'856'631 times.
  - rule 'linear: positive at most one' was applied 11 times.
  - rule 'linear: positive clause' was applied 642'994 times.
  - rule 'linear: remapped using affine relations' was applied 1 time.
  - rule 'linear: simplified rhs' was applied 1 time.
  - rule 'linear: small Boolean expression' was applied 644 times.
  - rule 'presolve: 2484606 unused variables removed.' was applied 1 time.
  - rule 'presolve: iteration' was applied 3 times.
  - rule 'probing: bool_or reduced to implication' was applied 20'411 times.
  - rule 'probing: simplified clauses.' was applied 53'193 times.
  - rule 'setppc: bool_or in at_most_one.' was applied 16 times.
  - rule 'setppc: fixed variables' was applied 12 times.
  - rule 'setppc: removed dominated constraints' was applied 23 times.

Presolved satisfaction model '': (model_fingerprint: 0x875285a9032e0572)
#Variables: 2'366'151
  - 2'366'151 Booleans in [0,1]
#kAtMostOne: 378 (#literals: 1'272)
#kBoolAnd: 435'121 (#enforced: 435'121 #multi: 20'917) (#literals: 5'958'755)
#kBoolOr: 441'098 (#literals: 3'514'670)
#kExactlyOne: 10 (#literals: 65)
#kLinearN: 11 (#terms: 116)
[Symmetry] Graph for symmetry has 7'560'765 nodes and 19'219'043 arcs.
[Symmetry] Graph too large. Skipping. You can use symmetry_level:3 or more to force it.

Preloading model.
#Model 285.37s var:2366151/2366151 constraints:876618/876618

Starting search at 285.93s with 36 workers.
8 full problem subsolvers: [default_lp, max_lp, no_lp, probing, probing_max_lp, probing_no_lp, quick_restart, quick_restart_no_lp]
28 first solution subsolvers: [fj(8), fj_lin(4), fs_random(4), fs_random_no_lp(4), fs_random_quick_restart(4), fs_random_quick_restart_no_lp(4)]
2 interleaved subsolvers: [feasibility_pump, rins/rens]
2 helper subsolvers: [neighborhood_helper, synchronization_agent]

/var/spool/slurmd.spool/job24648280/slurm_script: line 28: 730635 Killed                  /sw/pkgs/arc/python3.10-anaconda/2023.03/bin/python /home/lemonkey/idQ/py/idQ_expr.py "$J" "$K" "$N" "$p" "$SEED" "$solver"
slurmstepd: error: Detected 1 oom_kill event in StepId=24648280.batch. Some of the step tasks have been OOM Killed.
